m = 5; % number of couriers
n = 6; % number of packages

l = [12, 6, 17, 7, 9]; % maximum carriable weight per courier
s = [6, 3, 6, 8, 4, 9]; % weight of each package

D = % distance matrix 
	 [| 8, 12, 3, 6, 6, 7, 11
	 | 12, 3, 4, 8, 9, 6, 7
	 | 3, 4, 9, 5, 12, 10, 7
	 | 6, 8, 5, 5, 12, 10, 8
	 | 6, 9, 12, 12, 6, 11, 5
	 | 7, 6, 10, 10, 11, 11, 3
	 | 10, 5, 5, 9, 4, 12, 8
	 |];